Route 1: 1 3 45 6 8 7 46 4 5 2
Route 2: 12 16 15 11 9 10 13 17 47 14
Route 3: 42 43 44 37 38 41 35
Route 4: 20 23 22 49 19 18 48 21 25 24
Route 5: 36 39 40 31 34 50
Route 6: 33 27 30 32 28 26 29
Vehicles: 6
Distance: 782.39
